
Gurobi 12.0.1 (win64, C++) logging started Thu Mar 20 18:52:58 2025

Set parameter Username
Set parameter LicenseID to value 2618661
Academic license - for non-commercial use only - expires 2026-02-05
Set parameter Threads to value 8
Set parameter LazyConstraints to value 1
Set parameter PreCrush to value 1
Set parameter Seed to value 0
Set parameter Cuts to value -1
Set parameter TimeLimit to value 28800
Set parameter NumericFocus to value 0
Set parameter SolutionLimit to value 10000
Gurobi Optimizer version 12.0.1 build v12.0.1rc0 (win64 - Windows Server 2022.0 (20348.2))

CPU model: AMD EPYC 7513 32-Core Processor, instruction set [SSE2|AVX|AVX2]
Thread count: 18 physical cores, 18 logical processors, using up to 8 threads

Non-default parameters:
SolutionLimit  10000
TimeLimit  28800
PreCrush  1
Threads  8
LazyConstraints  1

Optimize a model with 255 rows, 484 columns and 1388 nonzeros
Model fingerprint: 0xa1fc4919
Variable types: 0 continuous, 484 integer (484 binary)
Coefficient statistics:
  Matrix range     [1e+00, 1e+00]
  Objective range  [3e+00, 8e+01]
  Bounds range     [1e+00, 1e+00]
  RHS range        [1e+00, 6e+00]
Presolve removed 6 rows and 30 columns
Presolve time: 0.00s
Presolved: 249 rows, 454 columns, 1300 nonzeros
Variable types: 0 continuous, 454 integer (454 binary)

Root relaxation: objective 3.576230e+02, 79 iterations, 0.00 seconds (0.00 work units)

    Nodes    |    Current Node    |     Objective Bounds      |     Work
 Expl Unexpl |  Obj  Depth IntInf | Incumbent    BestBd   Gap | It/Node Time

     0     0  357.62304    0   14          -  357.62304      -     -    0s
     0     0  371.96520    0    -          -  371.96520      -     -    0s
     0     0  382.84603    0    -          -  382.84603      -     -    0s
     0     0  393.01411    0    -          -  393.01411      -     -    0s
     0     0  403.69174    0    -          -  403.69174      -     -    0s
     0     0  404.51082    0    -          -  404.51082      -     -    0s
     0     0  413.25937    0   41          -  413.25937      -     -    0s
     0     0  414.90993    0   37          -  414.90993      -     -    0s
     0     0  414.90993    0   34          -  414.90993      -     -    0s
     0     0  414.90993    0   30          -  414.90993      -     -    0s
     0     2  414.90993    0   28          -  414.90993      -     -    0s
  1169  1065  509.37662   66   17          -  439.97503      -  10.7    5s
  2001  1563  512.31155   35   30          -  443.79574      -   9.3   10s
  2620  1964  579.54082   56   14          -  480.07826      -  11.7   15s
* 2636  1786              56     503.6008829  480.07826  4.67%  11.7   15s
* 2640  1710              58     502.4450795  480.07826  4.45%  11.7   15s
H 2915  1533                     500.4282043  480.13792  4.05%  11.9   16s
* 6295  2036              32     498.3157868  485.42316  2.59%  11.8   19s
  9123  2963     cutoff   32       498.31579  487.22831  2.22%  11.7   20s
* 9146  2937              33     498.1572394  487.22831  2.19%  11.7   20s

Cutting planes:
  Gomory: 13
  Clique: 2
  Flow cover: 1
  Zero half: 5
  Lazy constraints: 267

Explored 37071 nodes (398567 simplex iterations) in 23.67 seconds (6.30 work units)
Thread count was 8 (of 18 available processors)

Solution count 5: 498.157 498.316 500.428 ... 503.601

Optimal solution found (tolerance 1.00e-04)
Best objective 4.981572394012e+02, best bound 4.981572394012e+02, gap 0.0000%

User-callback calls 74990, time in user-callback 18.01 sec
### START EXACT APPROACH ###
ProblemVariant: 1
### START PREPROCESSING ###
## Start infeasible path procedure ## 
Deleted arcs: 8
Infeasible tail paths: 1
Infeasible 2-node combinations: 4
## Start extended infeasible path procedure ##
Deleted arcs: 8
Infeasible tail paths: 1
Infeasible 2-node combinations: 4
## Start start solution procedure ##
### END PREPROCESSING ###
Route 0 0-5-2-1-0 : weight util 0.975000 | volume util 0.349000 | infeasible with packing heuristic | feasible with CP model
Route 1 0-11-4-3-6-8-0 : weight util 0.975000 | volume util 0.485889 | infeasible with packing heuristic | feasible with CP model
Route 2 0-12-9-7-10-0 : weight util 0.800000 | volume util 0.406089 | infeasible with packing heuristic | feasible with CP model
Route 3 0-15-18-20-14-0 : weight util 0.975000 | volume util 0.536778 | infeasible with packing heuristic | feasible with CP model
Route 4 0-17-21-16-0 : weight util 0.950000 | volume util 0.205356 | infeasible with packing heuristic | feasible with CP model
Route 5 0-19-13-0 : weight util 0.950000 | volume util 0.250489 | infeasible with packing heuristic | feasible with CP model
